32	0

0	1	2
5	1	3
1	1	4
7	2	5	6
1	1	7
1	1	7
4	1	8
5	2	9	10
10	1	11
5	2	11	12
4	1	13
7	1	13
9	1	14
1	1	15
6	1	16
5	1	17
10	2	18	19
3	1	20
1	1	20
6	2	21	22
9	1	23
4	1	23
6	1	24
10	1	25
7	2	26	27
1	1	28
1	1	28
6	1	29
8	1	30
3	1	31
8	1	32
0	0
